(set-info :smt-lib-version 2.6)
(set-logic QF_BV)
(set-info :source |
 Patrice Godefroid, SAGE (systematic dynamic test generation)
 For more information: http://research.microsoft.com/en-us/um/people/pg/public_psfiles/ndss2008.pdf
|)
(set-info :category "industrial")
(set-info :status sat)
(declare-fun T1_18375 () (_ BitVec 8))
(declare-fun T2_18377 () (_ BitVec 16))
(declare-fun T1_18379 () (_ BitVec 8))
(declare-fun T2_17983 () (_ BitVec 16))
(declare-fun T1_17974 () (_ BitVec 8))
(declare-fun T4_17975 () (_ BitVec 32))
(declare-fun T1_18564 () (_ BitVec 8))
(declare-fun T1_18521 () (_ BitVec 8))
(declare-fun T1_18478 () (_ BitVec 8))
(declare-fun T1_18428 () (_ BitVec 8))
(declare-fun T1_18377 () (_ BitVec 8))
(declare-fun T1_18378 () (_ BitVec 8))
(declare-fun T1_17983 () (_ BitVec 8))
(declare-fun T1_17984 () (_ BitVec 8))
(declare-fun T1_17975 () (_ BitVec 8))
(declare-fun T1_17976 () (_ BitVec 8))
(declare-fun T1_17977 () (_ BitVec 8))
(declare-fun T1_17978 () (_ BitVec 8))
(assert (let ((?v_8 ((_ zero_extend 24) T1_18375)) (?v_7 ((_ zero_extend 16) T2_18377)) (?v_2 ((_ zero_extend 24) T1_18379)) (?v_4 ((_ zero_extend 16) T2_17983)) (?v_1 (bvsub ((_ zero_extend 24) T1_17974) (_ bv8 32)))) (let ((?v_5 (bvadd (bvadd (bvadd (bvadd ?v_1 (_ bv1598438 32)) ?v_4) (_ bv7 32)) ?v_8))) (let ((?v_6 (bvsub ?v_5 (_ bv1598405 32))) (?v_3 ((_ zero_extend 24) T1_18428)) (?v_0 (bvsub (bvadd (bvadd ?v_5 (_ bv3 32)) ?v_2) (_ bv1598407 32)))) (and true (= T4_17975 (bvor (bvshl (bvor (bvshl (bvor (bvshl ((_ zero_extend 24) T1_17978) (_ bv8 32)) ((_ zero_extend 24) T1_17977)) (_ bv8 32)) ((_ zero_extend 24) T1_17976)) (_ bv8 32)) ((_ zero_extend 24) T1_17975))) (= T2_17983 (bvor (bvshl ((_ zero_extend 8) T1_17984) (_ bv8 16)) ((_ zero_extend 8) T1_17983))) (= T2_18377 (bvor (bvshl ((_ zero_extend 8) T1_18378) (_ bv8 16)) ((_ zero_extend 8) T1_18377))) (bvule (bvsub (bvadd (bvadd ?v_0 (_ bv1598408 32)) ?v_3) (_ bv1 32)) (bvadd ?v_0 (_ bv1598412 32))) (not (= (bvadd (bvadd ?v_1 (_ bv30 32)) (_ bv1598408 32)) (_ bv0 32))) (= (bvadd (bvadd (bvadd (bvadd (bvadd ?v_7 (bvsub (_ bv4294967295 32) ?v_2)) (bvsub (_ bv4294967295 32) ?v_3)) (bvsub (_ bv4294967295 32) ((_ zero_extend 24) T1_18478))) (bvsub (_ bv4294967295 32) ((_ zero_extend 24) T1_18521))) (bvsub (_ bv4294967295 32) ((_ zero_extend 24) T1_18564))) (_ bv0 32)) (bvult (_ bv0 32) ?v_4) (not (= ?v_4 (_ bv0 32))) (= T4_17975 ?v_4) (bvult (bvadd ?v_6 (_ bv1598446 32)) (bvsub (bvadd (bvadd ?v_6 (_ bv1598408 32)) ?v_2) (_ bv1 32))) (not (= ?v_7 (_ bv0 32))) (bvult ?v_8 (_ bv8 32)) (not (= ?v_8 (_ bv0 32))) (= ?v_8 (_ bv1 32)))))))
(check-sat)
(exit)
